nproducts =  ;
profit = [ ];
demand = [ ];
penalty = [ ];
productName = [ ];
itemsPerBatch = [ ];
minimumProduce = [ ];

nresources = ;
budgetForResources = ;
resourceName = [ ];

resourceCost = [ ]; 

consumption = [ ];
               
maxNumOfBatches =  ;
